108985
0,72,44,45,53,20,12,36,17,47,23,30,64,49,3,52,58,67,7,82,62,38,51,40,77,60,5,14,68,24,41,54,22,11,2,56,33,48,46,59,42,80,71,50,1,29,78,27,34,37,15,74,81,43,21,18,4,31,39,10,32,26,6,55,16,73,57,76,8,70,35,65,19,66,75,25,69,13,61,79,63,28,9,0